nNurses = 109;
nHours = 34;
minHours = 6;
maxHours = 17;
maxConsec = 6;
maxPresence = 7;
demand = [12, 12, 15, 13, 11, 10, 11, 8, 7, 6, 9, 8, 11, 12, 11, 9, 7, 9, 10, 10, 7, 7, 11, 15, 16, 13, 14, 15, 19, 23, 26, 22, 21, 17];
